data;
param T := 4853;
param N := 21;
param W := 
[0] 9329
[1] 302
[2] 912
[3] 8317
[4] 1724
[5] 9721
[6] 4978
[7] 7804
[8] 9024
[9] 4325
[10] 7056
[11] 7871
[12] 9526
[13] 7446
[14] 4429
[15] 6160
[16] 9456
[17] 4159
[18] 2972
[19] 8327
[20] 3389
;
end;